PointerNetwork/Ptr_Net_TSPTW/benchmark/n20w60/n20w60.001.txt.solution
1 11 20 2 6 5 8 7 4 12 15 17 14 16 10 13 3 9 21 18 19 
335
